c A SAT instance generated from a 3-CNF formula that had 22 clauses and 11 variables
p cnf 11 22
-5 -2 10 0
8 9 11 0
11 8 -3 0
1 10 5 0
-2 -7 4 0
-3 -7 -8 0
-1 5 -10 0
10 4 7 0
7 11 8 0
-6 9 3 0
-11 1 -7 0
-10 -8 -7 0
1 11 5 0
-9 7 -5 0
-11 -6 -9 0
-11 -2 4 0
2 -1 7 0
-9 2 -7 0
2 -4 11 0
9 -2 -8 0
-9 -7 8 0
-5 11 -6 0
